RAW/XY/fspd/X-n134-k13.vrp_seed-3.out
8100	15.543	28.956
