RAW/XY/fspd/X-n134-k13.vrp_seed-3.sol
Route #1: 132 109 87 56 123 110 54 26 35 50 38 74 78
Route #2: 83
Route #3: 122 112 49 69 1 61 119 29 92 31 115 128
Route #4: 91 14 34 41 25 113 6 108 90 43 36 111 104 99 46 21 106 12 124
Route #5: 40 95 60 58 105 129 116 101 52 131 11 114 127 125 100
Route #6: 118 51 16 47 9 89 48 64 117 79 120 71 57 85 133 82 130 19
Route #7: 2 39 73 18 59 96 13 97 5 77 53 66 93 94 102 88 37 24 62 32 3 80
Route #8: 121 7 63 15 81 68 30 23 98 44 8 107 84 70 4 27 22 55 126 67 20 75 28 65 42 45 10 103 86 33 72 17 76
Cost 8100.000000